4 5
243 256 196 136 
0 87 77 105 95 24 14 42 32 20 33 21 14 4 69 96 32 63 34 91 48 1
1 81 71 58 48 42 32 19 9 89 69 39 80 97 7 68 20 32 2 23 96 4
2 83 73 18 8 60 50 95 85 99 10 40 23 65 55 58 18 93 8 45 12 1
3 70 60 86 76 95 85 11 1 42 37 13 50 35 92 50 60 29 15 47 46 3
4 33 23 104 94 74 64 53 43 15 64 21 18 61 31 14 26 44 58 16 58 3
